This is Ipopt version 3.14.14, running with linear solver MUMPS 5.6.2.

Number of nonzeros in equality constraint Jacobian...:   680020
Number of nonzeros in inequality constraint Jacobian.:    40000
Number of nonzeros in Lagrangian Hessian.............:        0

Total number of variables............................:   180017
                     variables with only lower bounds:        1
                variables with lower and upper bounds:    40006
                     variables with only upper bounds:        0
Total number of equality constraints.................:   180014
Total number of inequality constraints...............:    20000
        inequality constraints with only lower bounds:        0
   inequality constraints with lower and upper bounds:        0
        inequality constraints with only upper bounds:    20000

iter    objective    inf_pr   inf_du lg(mu)  ||d||  lg(rg) alpha_du alpha_pr  ls
   0  8.7828013e+00 2.26e+01 1.00e+00   0.0 0.00e+00    -  0.00e+00 0.00e+00   0
   1  8.8922289e+00 2.14e+01 3.59e+01   0.3 2.12e+00    -  9.90e-01 5.16e-02f  1
   2  8.8922541e+00 2.14e+01 2.99e+04  -5.7 1.61e+01    -  4.45e-01 5.60e-04h  1
   3  8.8934761e+00 2.14e+01 6.89e+04  -6.0 2.54e+02    -  2.16e-03 9.29e-04h  1
   4  9.1703907e+00 2.13e+01 3.16e+04  -0.2 2.55e+02    -  2.60e-03 5.88e-03f  1
   5  9.4453304e+00 2.12e+01 3.55e+04   0.3 3.24e+02    -  1.38e-03 8.53e-04f  1
   6  9.6286608e+00 2.12e+01 2.61e+04   2.0 1.82e+04    -  7.65e-06 1.01e-05f  1
   7  9.6423915e+00 2.12e+01 2.04e+05  -0.9 2.59e+02    -  2.50e-06 6.24e-04f  1
   8  2.3583986e+01 2.10e+01 2.01e+05   0.9 1.43e+03    -  5.76e-03 9.77e-03f  1
   9  2.3599503e+01 2.10e+01 3.04e+05  -0.0 2.55e+02    -  4.59e-04 1.01e-04f  1
iter    objective    inf_pr   inf_du lg(mu)  ||d||  lg(rg) alpha_du alpha_pr  ls
  10  2.3828323e+01 2.10e+01 2.01e+05  -0.0 2.57e+02    -  1.09e-05 1.48e-03f  1
  11  2.3998044e+01 2.10e+01 2.01e+05  -0.0 2.56e+02    -  2.00e-03 1.10e-03f  1
  12  2.5553999e+01 2.07e+01 2.00e+05  -0.0 2.59e+02    -  1.34e-04 1.01e-02f  1
  13  2.5569433e+01 2.07e+01 2.60e+05  -0.0 2.56e+02    -  9.93e-04 9.98e-05f  1
  14  2.5589772e+01 2.07e+01 2.00e+05  -0.0 2.57e+02    -  1.20e-06 1.31e-04f  1
  15  2.6047703e+01 2.07e+01 1.99e+05  -0.0 2.57e+02    -  2.38e-03 2.96e-03f  1
  16  2.6052325e+01 2.07e+01 3.53e+05  -0.0 2.57e+02    -  1.55e-02 2.98e-05h  1
  17  2.6052361e+01 2.07e+01 2.45e+05  -0.0 2.18e+02    -  9.02e-08 2.30e-07f  2
  18  2.6053558e+01 2.07e+01 1.98e+05  -0.0 4.96e+02    -  1.25e-08 7.58e-06f  1
  19  2.6249462e+01 2.07e+01 7.59e+05  -0.0 5.07e+02    -  7.97e-06 1.24e-03f  1
iter    objective    inf_pr   inf_du lg(mu)  ||d||  lg(rg) alpha_du alpha_pr  ls
  20  2.6340748e+01 2.06e+01 6.75e+05  -0.0 5.05e+02    -  1.28e-03 6.98e-04f  1
  21  2.6340805e+01 2.06e+01 1.41e+06  -0.0 5.03e+02    -  2.92e-05 4.38e-07h  5
  22  2.6341840e+01 2.06e+01 4.94e+05  -0.0 5.09e+02    -  6.42e-08 7.93e-06f  1
  23  2.6800602e+01 2.06e+01 1.01e+06  -0.0 5.34e+02    -  1.48e-06 3.51e-03f  1
  24  2.6805201e+01 2.06e+01 1.42e+06  -0.0 5.25e+02    -  9.17e-04 3.53e-05h  1
  25  2.6806097e+01 2.06e+01 8.60e+05  -0.0 5.45e+02    -  5.51e-08 6.89e-06f  1
  26  2.7080131e+01 2.05e+01 1.24e+06  -0.0 5.46e+02    -  7.52e-06 2.11e-03f  1
  27  2.7082923e+01 2.05e+01 2.41e+06  -0.0 5.36e+02    -  9.68e-04 2.15e-05h  1
  28  2.7083425e+01 2.05e+01 1.03e+06  -0.0 5.68e+02    -  3.32e-08 3.87e-06f  1
  29  2.7860250e+01 2.04e+01 1.55e+06  -0.0 5.70e+02    -  3.85e-06 5.98e-03f  1
iter    objective    inf_pr   inf_du lg(mu)  ||d||  lg(rg) alpha_du alpha_pr  ls
  30  2.7868242e+01 2.04e+01 2.98e+06  -0.0 5.55e+02    -  1.30e-02 6.19e-05f  1
  31  2.7868285e+01 2.04e+01 2.97e+06  -0.0 5.57e+02    -  3.33e-07 3.35e-07f  2
  32  2.7870315e+01 2.04e+01 2.42e+06  -0.0 5.89e+02    -  5.24e-08 1.57e-05f  1
  33  2.8285136e+01 2.03e+01 2.44e+06  -0.0 5.89e+02    -  1.61e-05 3.21e-03f  1
  34  2.8289331e+01 2.03e+01 3.76e+06  -0.0 5.82e+02    -  4.06e-03 3.26e-05h  1
  35  2.8290016e+01 2.03e+01 2.44e+06  -0.0 6.05e+02    -  4.41e-08 5.33e-06f  1
  36  2.8708300e+01 2.03e+01 2.43e+06  -0.0 6.07e+02    -  5.11e-06 3.25e-03f  1
  37  2.8712551e+01 2.03e+01 7.60e+06  -0.0 5.97e+02    -  3.63e-03 3.32e-05h  1
  38  2.8712734e+01 2.03e+01 2.43e+06  -0.0 6.28e+02    -  1.24e-08 1.42e-06f  1
  39  2.9599371e+01 2.01e+01 5.67e+06  -0.0 6.37e+02    -  1.10e-06 6.92e-03f  1
iter    objective    inf_pr   inf_du lg(mu)  ||d||  lg(rg) alpha_du alpha_pr  ls
  40  2.9608273e+01 2.01e+01 8.01e+06  -0.0 6.34e+02    -  1.76e-02 6.99e-05f  1
  41  2.9608296e+01 2.01e+01 1.10e+07  -0.0 6.34e+02    -  4.77e-07 1.77e-07f  3
  42  2.9608658e+01 2.01e+01 3.96e+06  -0.0 6.69e+02    -  1.15e-08 2.85e-06f  1
  43  2.9858215e+01 2.01e+01 4.65e+06  -0.0 6.77e+02    -  2.34e-06 1.96e-03f  1
  44  2.9860741e+01 2.01e+01 1.00e+07  -0.0 6.69e+02    -  2.25e-03 1.99e-05h  1
  45  2.9860939e+01 2.01e+01 4.66e+06  -0.0 6.99e+02    -  1.48e-08 1.56e-06f  1
  46  3.0520562e+01 2.00e+01 7.12e+06  -0.0 7.03e+02    -  1.37e-06 5.19e-03f  1
  47  3.0527550e+01 2.00e+01 2.11e+07  -0.0 6.71e+02    -  1.62e-02 5.53e-05f  1
  48  3.0527732e+01 2.00e+01 7.14e+06  -0.0 7.00e+02    -  1.08e-08 1.44e-06f  1
  49  3.1441184e+01 1.98e+01 1.51e+07  -0.0 7.18e+02    -  8.91e-07 7.24e-03f  1
iter    objective    inf_pr   inf_du lg(mu)  ||d||  lg(rg) alpha_du alpha_pr  ls
  50  3.1450840e+01 1.98e+01 1.22e+07  -0.0 6.83e+02    -  1.42e-02 7.70e-05f  1
  51r 3.1450840e+01 1.98e+01 1.00e+03   1.3 0.00e+00    -  0.00e+00 3.88e-07R  2
  52r 3.2079744e+01 1.29e+01 1.01e+03   0.6 7.19e+03    -  3.06e-03 1.03e-03f  1
  53r 3.2079744e+01 1.29e+01 9.99e+02   1.1 0.00e+00    -  0.00e+00 3.47e-07R  4
  54r 3.2081869e+01 1.16e+01 9.97e+02   1.1 7.82e+03    -  4.25e-03 1.82e-04f  1
  55r 3.2311176e+01 2.16e+00 9.92e+02   1.8 2.83e+03    -  5.72e-03 3.97e-03f  1
  56  3.2323433e+01 2.15e+00 3.33e+02   0.3 3.35e+00    -  9.87e-01 6.84e-03h  1
  57  3.2323785e+01 2.14e+00 2.44e+03  -5.7 3.18e+02    -  7.79e-03 1.06e-03h  1
  58  3.2391281e+01 3.13e+00 1.04e+03  -0.8 4.58e+02    -  3.07e-03 5.69e-03f  1
  59  3.4413020e+01 3.34e+00 2.71e+03   0.2 4.51e+02    -  1.08e-02 1.88e-02f  1
iter    objective    inf_pr   inf_du lg(mu)  ||d||  lg(rg) alpha_du alpha_pr  ls
  60  3.4634283e+01 3.34e+00 2.71e+03   0.2 5.79e+02    -  2.29e-02 2.03e-03f  1
  61  3.4930239e+01 3.33e+00 5.49e+03   0.2 5.98e+02    -  7.92e-03 2.65e-03f  1
  62  3.5407365e+01 3.32e+00 4.95e+03   0.2 6.72e+02    -  8.45e-05 4.24e-03f  1
  63  3.5418234e+01 3.31e+00 2.73e+03   0.2 6.70e+02    -  1.49e-04 9.66e-05f  1
  64  3.8077374e+01 5.07e+00 1.12e+04   0.2 6.87e+02    -  1.74e-04 2.36e-02f  1
  65  3.8080869e+01 5.07e+00 2.19e+07   0.2 4.99e+02    -  8.10e-02 3.55e-05h  1
  66  3.8107208e+01 5.07e+00 2.83e+07   0.2 5.71e+02    -  1.28e-02 2.56e-04f  1
  67  3.8208125e+01 5.06e+00 2.58e+07   0.2 5.94e+02    -  8.32e-06 9.74e-04f  1
  68  3.9394383e+01 5.88e+00 2.56e+07   0.2 5.90e+02    -  9.92e-04 1.15e-02f  1
  69  3.9406159e+01 5.88e+00 2.55e+07   0.2 5.76e+02    -  3.84e-02 1.14e-04f  1
iter    objective    inf_pr   inf_du lg(mu)  ||d||  lg(rg) alpha_du alpha_pr  ls
  70r 3.9406159e+01 5.88e+00 1.00e+03   0.8 0.00e+00    -  0.00e+00 2.97e-07R  3
  71r 4.0497543e+01 4.57e+00 1.02e+03   1.1 1.02e+03    -  1.79e-02 1.28e-03f  1
  72  4.0497561e+01 4.57e+00 1.69e+05   0.2 4.67e+00    -  9.77e-01 1.28e-05h  1
  73  4.0499644e+01 4.57e+00 2.66e+05   0.2 6.00e+02    -  9.59e-05 3.39e-05h  1
  74  4.0503370e+01 4.57e+00 2.95e+05   0.2 8.41e+02    -  4.29e-07 6.03e-05f  1
  75  4.0555263e+01 4.57e+00 2.95e+05   0.2 8.30e+02    -  6.57e-05 8.40e-04f  1
  76  4.1181835e+01 4.52e+00 3.97e+05   0.2 8.40e+02    -  8.95e-04 1.01e-02f  1
  77  4.2648757e+01 9.90e+00 6.82e+05   0.2 9.65e+02    -  7.76e-03 2.36e-02f  1
  78  4.2655687e+01 9.90e+00 4.62e+05   0.2 1.25e+03    -  1.11e-02 1.10e-04h  1
  79r 4.2655687e+01 9.90e+00 1.00e+03   1.0 0.00e+00    -  0.00e+00 2.86e-07R  3
iter    objective    inf_pr   inf_du lg(mu)  ||d||  lg(rg) alpha_du alpha_pr  ls
  80r 4.5747588e+01 4.15e+00 9.96e+02   1.2 1.18e+03    -  1.72e-02 5.17e-03f  1
  81  4.5747681e+01 4.15e+00 3.29e+04   0.2 1.63e+01    -  9.79e-01 6.50e-05h  1
  82  4.5751354e+01 4.15e+00 4.73e+04   0.2 1.25e+03    -  8.12e-05 5.37e-05h  1
  83  4.5753309e+01 4.15e+00 2.29e+04   0.2 1.18e+03    -  7.71e-06 3.15e-05h  1
  84  4.8915188e+01 3.46e+01 3.68e+05   0.2 1.48e+03    -  7.58e-03 4.60e-02f  1
  85  4.8915265e+01 3.46e+01 3.68e+05   0.2 1.89e+04    -  3.68e-05 1.95e-06h  7
  86  4.8915356e+01 3.46e+01 3.68e+05   0.2 1.91e+04    -  5.61e-05 2.32e-06h  7
  87  4.8915477e+01 3.46e+01 3.68e+05   0.2 1.93e+04    -  2.94e-04 3.11e-06h  7
  88  4.8916046e+01 3.46e+01 3.68e+05   0.2 1.95e+04    -  4.96e-05 1.48e-05h  6
  89  4.8928954e+01 3.46e+01 3.22e+05   0.2 2.07e+04    -  3.50e-04 3.50e-04s 11
iter    objective    inf_pr   inf_du lg(mu)  ||d||  lg(rg) alpha_du alpha_pr  ls
  90  4.8948318e+01 3.46e+01 7.88e+06   0.2 2.34e+04    -  1.33e-03 0.00e+00S 11
  91  4.8946660e+01 3.46e+01 7.88e+06   0.2 6.45e+04    -  5.94e-05 5.94e-05s 10
  92  4.8975725e+01 3.46e+01 4.86e+07   0.2 2.84e+04    -  1.13e-03 0.00e+00S 10
  93  4.8987575e+01 3.46e+01 4.54e+07   0.2 1.67e+04    -  6.21e-06 2.81e-04f  4
  94r 4.8987575e+01 3.46e+01 1.00e+03   1.5 0.00e+00    -  0.00e+00 2.71e-07R  8
  95r 5.0142249e+01 2.46e+01 9.93e+02   0.7 1.99e+03    -  1.46e-02 5.58e-03f  1
  96  5.0142286e+01 2.46e+01 8.94e+04   0.2 4.98e+01    -  9.82e-01 2.56e-05h  1
  97r 5.0142286e+01 2.46e+01 1.00e+03   1.4 0.00e+00    -  0.00e+00 3.62e-07R  4
  98r 8.8496703e+01 1.48e+01 9.91e+02   2.1 5.49e+03    -  1.64e-02 7.00e-03f  1
  99  8.8497786e+01 1.47e+01 3.08e+03   0.2 6.73e+01    -  9.81e-01 7.25e-04h  1
iter    objective    inf_pr   inf_du lg(mu)  ||d||  lg(rg) alpha_du alpha_pr  ls
 100  8.8501496e+01 1.47e+01 4.63e+06   0.2 5.63e+02    -  7.48e-02 4.94e-05h  1
 101  8.8506700e+01 1.47e+01 4.26e+09   0.2 6.09e+02    -  7.43e-02 8.01e-05h  1
 102r 8.8506700e+01 1.47e+01 1.00e+03   1.2 0.00e+00    -  0.00e+00 2.86e-07R  6
 103r 2.5682174e+02 7.01e+00 9.92e+02   2.8 2.78e+04    -  1.32e-02 6.06e-03f  1
 104  2.5682625e+02 6.98e+00 6.73e+02   0.2 1.56e+01    -  9.62e-01 3.25e-03h  1
 105  2.5682730e+02 6.98e+00 1.73e+07   0.2 9.07e+01    -  1.00e+00 3.83e-05h  1
 106  2.5714998e+02 6.98e+00 3.33e+08   0.2 1.79e+03    -  4.60e-02 3.31e-04f  1
 107  2.5719208e+02 6.98e+00 2.03e+11   0.2 5.20e+03    -  1.77e-02 2.80e-05h  1
 108  2.5719730e+02 6.98e+00 1.41e+15   0.2 1.05e+03    -  1.30e-01 1.78e-05h  1
 109  2.5063223e+02 6.23e+00 9.94e+14   0.2 3.93e+01    -  2.96e-01 2.41e-01h  1
iter    objective    inf_pr   inf_du lg(mu)  ||d||  lg(rg) alpha_du alpha_pr  ls
 110  2.5078725e+02 6.23e+00 9.89e+14   0.2 3.02e+04    -  4.78e-03 4.56e-05f  1
 111  2.5079841e+02 6.23e+00 1.34e+15   0.2 3.53e+02    -  2.35e-04 5.22e-05h  1
 112  2.9927860e+02 1.27e+02 4.66e+15   0.2 4.15e+02    -  2.00e-04 5.63e-01f  1
 113  3.0964566e+02 1.10e+02 3.06e+15   0.2 3.09e+02    -  2.02e-01 1.34e-01f  1
 114  3.1414861e+02 1.09e+02 3.39e+15   0.2 1.63e+03    -  2.24e-05 2.80e-03f  1
 115r 3.1414861e+02 1.09e+02 1.00e+03   2.0 0.00e+00    -  0.00e+00 1.17e-09R  2
 116r 3.1414468e+02 9.81e+01 4.63e+03  -4.1 4.19e+04    -  3.24e-03 2.19e-03f  1
 117  3.1465750e+02 2.02e+02 1.89e+09   0.2 1.91e+03    -  1.30e-08 1.60e-01f  2
 118  3.1470824e+02 1.94e+02 1.80e+09   0.2 1.16e+02    -  9.21e-01 3.89e-02h  1
 119  3.1471468e+02 1.94e+02 1.80e+09   0.2 1.14e+02    -  9.99e-01 4.38e-04h  1
iter    objective    inf_pr   inf_du lg(mu)  ||d||  lg(rg) alpha_du alpha_pr  ls
 120  3.2096671e+02 1.80e+02 1.60e+09   0.2 1.23e+02    -  6.73e-01 7.36e-02f  1
 121  3.2643922e+02 1.67e+02 1.43e+09   0.2 1.18e+02    -  9.98e-01 7.46e-02f  1
 122  3.2650839e+02 1.67e+02 1.43e+09   0.2 1.10e+02    -  1.00e+00 9.83e-04h  1
 123  3.2960449e+02 1.65e+02 1.50e+09   0.2 3.15e+02    -  1.41e-02 9.93e-03f  1
 124  3.3735240e+02 1.61e+02 1.66e+09   0.2 3.16e+02    -  1.44e-04 2.47e-02f  1
 125  4.6685094e+02 1.06e+02 1.38e+09   0.2 3.20e+02    -  1.71e-05 4.10e-01f  1
 126  4.7296521e+02 9.33e+01 1.25e+09   0.2 1.34e+02    -  1.55e-02 1.17e-01f  1
 127  4.9799650e+02 4.90e+01 7.61e+08   0.2 1.51e+02    -  4.35e-02 4.86e-01f  1
 128  4.9927187e+02 4.78e+01 7.41e+08   0.2 4.98e+01    -  9.35e-01 2.59e-02f  1
 129  4.9942357e+02 4.76e+01 7.39e+08   0.2 5.14e+01    -  9.33e-01 2.99e-03f  1
iter    objective    inf_pr   inf_du lg(mu)  ||d||  lg(rg) alpha_du alpha_pr  ls
 130  5.0333058e+02 4.54e+01 7.05e+08   0.2 8.64e+01    -  6.10e-01 4.56e-02f  1
 131  6.1858285e+02 5.59e+00 4.47e+07   0.2 1.16e+02    -  1.00e+00 1.00e+00f  1
 132  6.5300389e+02 8.10e-01 5.45e+05   0.2 3.45e+01    -  9.11e-01 1.00e+00f  1
 133  6.5218621e+02 2.56e-05 3.97e+04  -5.8 8.75e-01    -  9.66e-01 1.00e+00h  1
 134  6.5766148e+02 2.17e-08 7.91e+00  -0.7 5.48e+00    -  9.99e-01 1.00e+00f  1
 135  5.5716089e+02 6.18e-13 3.02e-05  -6.7 1.01e+02    -  9.90e-01 1.00e+00f  1
 136  3.1979981e+01 2.19e-11 3.02e-07  -8.1 5.25e+02    -  9.90e-01 1.00e+00f  1
 137  1.4155767e+01 7.47e-09 3.72e-02  -5.6 2.86e+01    -  1.00e+00 6.23e-01f  1
 138  1.4127893e+01 7.44e-09 3.44e-01  -6.1 8.04e+00    -  1.00e+00 3.47e-03f  1
 139  1.4127615e+01 7.21e-09 7.49e-01  -5.5 8.87e-03    -  9.98e-01 3.14e-02h  1
iter    objective    inf_pr   inf_du lg(mu)  ||d||  lg(rg) alpha_du alpha_pr  ls
 140  1.4127613e+01 9.09e-13 1.80e-05  -5.9 1.80e-05    -  1.00e+00 1.00e+00h  1
 141  1.4127612e+01 9.09e-13 1.79e-05 -11.0 1.79e-05    -  9.96e-01 9.95e-01h  1
 142  1.4127611e+01 7.96e-13 1.79e-05 -11.0 1.79e-05    -  1.00e+00 1.00e+00h  1
 143  1.4127611e+01 1.14e-12 1.79e-05 -11.0 1.79e-05    -  1.00e+00 1.00e+00h  1
 144  1.4127611e+01 9.66e-13 1.79e-05 -11.0 1.79e-05    -  1.00e+00 1.00e+00h  1
 145  1.4127611e+01 7.39e-13 1.79e-05 -11.0 1.79e-05    -  1.00e+00 1.00e+00h  1
 146  1.4127611e+01 9.09e-13 1.79e-05 -11.0 1.79e-05    -  1.00e+00 1.00e+00h  1
 147  1.4127611e+01 8.53e-13 1.79e-05 -11.0 1.79e-05    -  1.00e+00 1.00e+00h  1
 148  1.4127611e+01 7.96e-13 1.79e-05 -11.0 1.79e-05    -  1.00e+00 1.00e+00h  1
 149  1.4127610e+01 1.19e-12 1.79e-05 -11.0 1.79e-05    -  1.00e+00 1.00e+00h  1
iter    objective    inf_pr   inf_du lg(mu)  ||d||  lg(rg) alpha_du alpha_pr  ls
 150  1.4127610e+01 7.96e-13 1.79e-05 -11.0 1.79e-05    -  1.00e+00 1.00e+00h  1
 151  1.4127610e+01 7.96e-13 1.79e-05 -11.0 1.79e-05    -  1.00e+00 1.00e+00h  1
 152  1.4127610e+01 7.96e-13 1.79e-05 -11.0 1.79e-05    -  1.00e+00 1.00e+00h  1
 153  1.4127610e+01 9.09e-13 1.79e-05 -11.0 1.79e-05    -  1.00e+00 1.00e+00h  1
 154  1.4127610e+01 8.53e-13 1.79e-05 -11.0 1.79e-05    -  1.00e+00 1.00e+00h  1

Number of Iterations....: 154

                                   (scaled)                 (unscaled)
Objective...............:   1.4127609785738958e+01    1.4127609785738958e+01
Dual infeasibility......:   1.7890845645551082e-05    1.7890845645551082e-05
Constraint violation....:   8.5265128291212022e-13    8.5265128291212022e-13
Variable bound violation:   0.0000000000000000e+00    0.0000000000000000e+00
Complementarity.........:   1.0000000000000003e-11    1.0000000000000003e-11
Overall NLP error.......:   1.7890845645551082e-05    1.7890845645551082e-05


Number of objective function evaluations             = 253
Number of objective gradient evaluations             = 154
Number of equality constraint evaluations            = 253
Number of inequality constraint evaluations          = 253
Number of equality constraint Jacobian evaluations   = 163
Number of inequality constraint Jacobian evaluations = 163
Number of Lagrangian Hessian evaluations             = 0
Total seconds in IPOPT                               = 75.186

EXIT: Solved To Acceptable Level.
